c A SAT instance generated from a 3-CNF formula that had 30 clauses and 15 variables
p cnf 15 30
1 -7 -4 0
-13 5 -9 0
14 -9 1 0
1 2 -8 0
-14 -10 15 0
-14 -5 -1 0
5 -11 -10 0
8 -5 -1 0
-15 7 8 0
1 -13 -9 0
2 -13 3 0
12 -14 5 0
-10 -9 5 0
15 2 6 0
8 2 12 0
-7 -3 -12 0
5 -8 -4 0
6 15 12 0
13 -4 -5 0
5 13 -11 0
-5 11 -6 0
15 -10 -2 0
3 -5 -10 0
-9 8 11 0
-11 1 14 0
-7 6 3 0
6 -4 15 0
14 11 4 0
15 -5 14 0
-2 -8 5 0
%
0

49 10 76 5 26 85 8 51 65 13 75 45 89 13 58
